(set-logic QF_S)
(set-option :strings-exp true)
(set-option :produce-models true)
(declare-fun sigmaStar_0 () String)
(declare-fun sigmaStar_1 () String)
(declare-fun literal_7 () String)
(assert (= literal_7 "\x3c\x73\x70\x61\x6e\x20\x63\x6c\x61\x73\x73\x3d\x22\x61\x75\x74\x68\x6f\x72\x22\x3e\x75\x73\x65\x72\x3c\x2f\x73\x70\x61\x6e\x3e"))
(assert (str.in.re literal_7 (re.++ (re.* re.allchar) (re.++ (str.to.re "\x5c\x3c\x53\x43\x52\x49\x50\x54") (re.* re.allchar)))))
(check-sat)
(get-model)
